VALUE 4360
5 63
14 120
20 77
24 313
27 32
28 134
29 216
1 30
37 45
38 317
41 271
43 140
5 45
46 115
47 144
49 256
52 295
53 315
57 267
58 252
60 109
70 132
20 77
80 145
52 83
20 87
88 146
94 303
95 304
100 298
102 296
107 311
111 263
22 113
80 114
83 115
121 279
122 308
123 259
124 243
125 185
134 140
43 140
146 210
148 168
150 281
154 195
49 167
168 239
174 271
191 321
193 227
195 296
198 259
146 208
216 256
24 221
185 231
193 243
246 266
58 255
118 257
111 263
174 265
267 286
41 271
275 291
195 278
279 286
169 281
73 282
209 286
173 288
150 300
303 304
95 304
173 308
170 311
314 315
46 317
88 321

